% demand
num_movements = 17;
loading_factor = [1350, 900, 1150, 1200, 1050, 2000, 1450, 1500, 1950, 1300, 1300, 950, 850, 1600, 1400, 1950, 1100];
pickup_time = [0, 0, 0, 1, 2, 3, 3, 5, 5, 6, 8, 8, 9, 11, 13, 13, 13];
delivery_time = [2, 1, 6, 8, 8, 5, 5, 9, 12, 11, 11, 14, 11, 14, 14, 14, 14];

% transporter definition
total_capacity = 7000;
num_decks = 3;
capacity = [3000, 1000, 3000];

% ways out of decks
num_ways_out = 1;
paths_out = array3d(decks, ways_out, decks, [
% ways out of deck d1
2, 3, 0, 

% ways out of deck d2
3, 0, 0, 

% ways out of deck d3
0, 0, 0,	

]);

